c FILE: i080-102

c SOURCE: From steinlib

c DESCRIPTION: Steinlib instance with 80 nodes and 120 edges.

p edge 80 120
e 1 4
e 1 38
e 1 41
e 1 42
e 1 46
e 2 22
e 2 35
e 2 64
e 2 69
e 2 79
e 3 38
e 5 60
e 5 70
e 6 15
e 6 29
e 6 47
e 6 74
e 7 12
e 7 28
e 7 37
e 7 43
e 8 15
e 8 50
e 9 27
e 9 30
e 10 11
e 10 61
e 10 63
e 11 48
e 11 58
e 12 37
e 12 66
e 13 68
e 14 22
e 14 66
e 16 38
e 16 75
e 17 25
e 17 30
e 17 56
e 17 70
e 17 72
e 17 78
e 18 63
e 18 70
e 18 74
e 18 80
e 19 60
e 19 66
e 19 80
e 20 42
e 20 51
e 20 54
e 21 37
e 21 50
e 21 52
e 22 37
e 22 42
e 22 43
e 22 56
e 22 65
e 23 32
e 23 57
e 23 60
e 23 67
e 24 60
e 24 71
e 25 68
e 26 65
e 27 38
e 27 43
e 27 65
e 28 34
e 28 36
e 28 40
e 28 76
e 28 79
e 29 33
e 29 38
e 30 56
e 31 37
e 32 33
e 32 42
e 32 44
e 32 49
e 32 74
e 33 38
e 34 51
e 34 59
e 35 56
e 36 39
e 36 42
e 37 65
e 38 47
e 38 55
e 38 70
e 38 71
e 40 47
e 41 52
e 41 54
e 45 65
e 45 72
e 47 74
e 50 75
e 51 78
e 52 73
e 52 77
e 53 65
e 55 65
e 56 57
e 58 65
e 58 66
e 58 74
e 59 80
e 60 62
e 60 68
e 62 63
e 65 71
e 70 77
e 72 76
